(set-logic BV) (define-fun origCir ((n207 Bool) (n254 Bool) (n325 Bool) (n97 Bool)) Bool (and (xor n325 (not (and n254 n207))) n97)) (synth-fun skel ((n207 Bool) (n254 Bool) (n325 Bool) (n97 Bool)) Bool) (declare-var n207 Bool) (declare-var n254 Bool) (declare-var n325 Bool) (declare-var n97 Bool) (constraint (= (origCir n207 n254 n325 n97) (skel n207 n254 n325 n97))) (check-synth)
